50
1 0 17
2 0 85
2 1 83
3 0 5
3 1 82
3 2 12
4 0 93
4 1 86
4 2 72
4 3 94
5 0 90
5 1 45
5 2 111
5 3 57
5 4 90
6 0 62
6 1 38
6 2 32
6 3 7
6 4 76
6 5 53
7 0 35
7 1 102
7 2 103
7 3 7
7 4 55
7 5 28
7 6 16
8 0 33
8 1 69
8 2 82
8 3 111
8 4 91
8 5 50
8 6 30
8 7 69
9 0 100
9 1 61
9 2 14
9 3 93
9 4 89
9 5 82
9 6 54
9 7 99
9 8 69
10 0 93
10 1 66
10 2 71
10 3 63
10 4 104
10 5 94
10 6 37
10 7 68
10 8 6
10 9 90
11 0 90
11 1 87
11 2 75
11 3 91
11 4 38
11 5 48
11 6 15
11 7 63
11 8 11
11 9 70
11 10 72
12 0 69
12 1 110
12 2 104
12 3 22
12 4 112
12 5 3
12 6 58
12 7 79
12 8 116
12 9 100
12 10 120
12 11 86
13 0 53
13 1 103
13 2 15
13 3 9
13 4 34
13 5 107
13 6 118
13 7 71
13 8 60
13 9 110
13 10 89
13 11 17
13 12 31
14 0 49
14 1 42
14 2 92
14 3 15
14 4 112
14 5 112
14 6 69
14 7 114
14 8 25
14 9 120
14 10 15
14 11 105
14 12 22
14 13 64
15 0 54
15 1 55
15 2 67
15 3 72
15 4 118
15 5 106
15 6 114
15 7 14
15 8 107
15 9 96
15 10 80
15 11 95
15 12 86
15 13 28
15 14 79
16 0 64
16 1 32
16 2 61
16 3 25
16 4 85
16 5 12
16 6 43
16 7 47
16 8 8
16 9 25
16 10 50
16 11 46
16 12 41
16 13 78
16 14 108
16 15 13
17 0 77
17 1 10
17 2 23
17 3 109
17 4 33
17 5 93
17 6 61
17 7 13
17 8 77
17 9 35
17 10 4
17 11 79
17 12 24
17 13 116
17 14 9
17 15 43
17 16 95
18 0 2
18 1 14
18 2 27
18 3 91
18 4 80
18 5 115
18 6 1
18 7 74
18 8 101
18 9 23
18 10 3
18 11 33
18 12 30
18 13 82
18 14 83
18 15 3
18 16 95
18 17 114
19 0 55
19 1 94
19 2 89
19 3 61
19 4 13
19 5 48
19 6 24
19 7 66
19 8 64
19 9 104
19 10 65
19 11 70
19 12 49
19 13 101
19 14 7
19 15 107
19 16 67
19 17 103
19 18 110
20 0 112
20 1 92
20 2 116
20 3 23
20 4 5
20 5 40
20 6 105
20 7 68
20 8 120
20 9 94
20 10 90
20 11 107
20 12 51
20 13 40
20 14 22
20 15 104
20 16 6
20 17 19
20 18 7
20 19 42
21 0 22
21 1 58
21 2 44
21 3 26
21 4 17
21 5 12
21 6 13
21 7 72
21 8 33
21 9 103
21 10 103
21 11 13
21 12 115
21 13 6
21 14 79
21 15 31
21 16 86
21 17 119
21 18 36
21 19 29
21 20 20
22 0 12
22 1 21
22 2 87
22 3 78
22 4 19
22 5 27
22 6 44
22 7 80
22 8 94
22 9 79
22 10 29
22 11 54
22 12 19
22 13 67
22 14 28
22 15 41
22 16 65
22 17 57
22 18 41
22 19 87
22 20 20
22 21 62
23 0 20
23 1 95
23 2 63
23 3 100
23 4 28
23 5 43
23 6 11
23 7 26
23 8 101
23 9 53
23 10 13
23 11 38
23 12 66
23 13 45
23 14 108
23 15 91
23 16 77
23 17 82
23 18 91
23 19 2
23 20 118
23 21 114
23 22 67
24 0 3
24 1 26
24 2 52
24 3 65
24 4 83
24 5 38
24 6 18
24 7 107
24 8 106
24 9 78
24 10 80
24 11 6
24 12 70
24 13 47
24 14 105
24 15 3
24 16 24
24 17 93
24 18 48
24 19 116
24 20 33
24 21 52
24 22 61
24 23 102
25 0 18
25 1 15
25 2 75
25 3 2
25 4 16
25 5 29
25 6 93
25 7 115
25 8 51
25 9 11
25 10 84
25 11 68
25 12 98
25 13 102
25 14 36
25 15 77
25 16 88
25 17 76
25 18 88
25 19 71
25 20 50
25 21 4
25 22 47
25 23 48
25 24 15
26 0 22
26 1 46
26 2 48
26 3 78
26 4 22
26 5 59
26 6 54
26 7 80
26 8 28
26 9 71
26 10 64
26 11 71
26 12 19
26 13 109
26 14 94
26 15 115
26 16 114
26 17 104
26 18 69
26 19 70
26 20 56
26 21 19
26 22 24
26 23 114
26 24 69
26 25 51
27 0 15
27 1 75
27 2 40
27 3 72
27 4 114
27 5 73
27 6 104
27 7 103
27 8 72
27 9 111
27 10 27
27 11 86
27 12 33
27 13 111
27 14 29
27 15 84
27 16 29
27 17 120
27 18 25
27 19 77
27 20 64
27 21 90
27 22 120
27 23 61
27 24 119
27 25 100
27 26 88
28 0 46
28 1 47
28 2 113
28 3 36
28 4 105
28 5 64
28 6 82
28 7 37
28 8 29
28 9 53
28 10 44
28 11 20
28 12 104
28 13 21
28 14 106
28 15 65
28 16 113
28 17 104
28 18 28
28 19 25
28 20 56
28 21 115
28 22 39
28 23 18
28 24 117
28 25 84
28 26 27
28 27 54
29 0 58
29 1 69
29 2 109
29 3 30
29 4 81
29 5 119
29 6 5
29 7 102
29 8 41
29 9 62
29 10 83
29 11 81
29 12 52
29 13 65
29 14 80
29 15 106
29 16 49
29 17 1
29 18 4
29 19 67
29 20 80
29 21 86
29 22 6
29 23 107
29 24 29
29 25 30
29 26 45
29 27 108
29 28 3
30 0 79
30 1 70
30 2 51
30 3 35
30 4 39
30 5 7
30 6 61
30 7 26
30 8 76
30 9 113
30 10 47
30 11 71
30 12 60
30 13 90
30 14 96
30 15 16
30 16 96
30 17 85
30 18 22
30 19 103
30 20 26
30 21 117
30 22 5
30 23 72
30 24 12
30 25 44
30 26 74
30 27 68
30 28 46
30 29 20
31 0 57
31 1 51
31 2 68
31 3 15
31 4 104
31 5 63
31 6 49
31 7 102
31 8 94
31 9 6
31 10 88
31 11 5
31 12 18
31 13 40
31 14 66
31 15 47
31 16 67
31 17 61
31 18 58
31 19 3
31 20 60
31 21 43
31 22 119
31 23 101
31 24 5
31 25 119
31 26 4
31 27 17
31 28 26
31 29 76
31 30 23
32 0 40
32 1 103
32 2 89
32 3 35
32 4 87
32 5 51
32 6 27
32 7 6
32 8 69
32 9 12
32 10 61
32 11 44
32 12 111
32 13 36
32 14 69
32 15 32
32 16 115
32 17 33
32 18 44
32 19 62
32 20 111
32 21 55
32 22 28
32 23 66
32 24 83
32 25 89
32 26 11
32 27 17
32 28 78
32 29 113
32 30 78
32 31 2
33 0 64
33 1 113
33 2 104
33 3 35
33 4 25
33 5 48
33 6 43
33 7 52
33 8 79
33 9 7
33 10 73
33 11 26
33 12 84
33 13 105
33 14 10
33 15 83
33 16 4
33 17 75
33 18 67
33 19 47
33 20 101
33 21 89
33 22 48
33 23 4
33 24 108
33 25 51
33 26 64
33 27 73
33 28 114
33 29 40
33 30 35
33 31 70
33 32 104
34 0 47
34 1 54
34 2 66
34 3 89
34 4 75
34 5 18
34 6 77
34 7 7
34 8 99
34 9 54
34 10 51
34 11 54
34 12 79
34 13 92
34 14 28
34 15 99
34 16 62
34 17 44
34 18 6
34 19 95
34 20 6
34 21 93
34 22 50
34 23 73
34 24 41
34 25 90
34 26 5
34 27 32
34 28 17
34 29 6
34 30 112
34 31 33
34 32 73
34 33 33
35 0 56
35 1 34
35 2 43
35 3 64
35 4 61
35 5 80
35 6 116
35 7 78
35 8 65
35 9 76
35 10 14
35 11 9
35 12 63
35 13 73
35 14 5
35 15 111
35 16 97
35 17 91
35 18 114
35 19 79
35 20 49
35 21 9
35 22 73
35 23 45
35 24 47
35 25 45
35 26 33
35 27 81
35 28 38
35 29 113
35 30 70
35 31 81
35 32 90
35 33 114
35 34 28
36 0 67
36 1 69
36 2 88
36 3 48
36 4 84
36 5 49
36 6 57
36 7 34
36 8 50
36 9 47
36 10 9
36 11 40
36 12 75
36 13 32
36 14 11
36 15 102
36 16 22
36 17 40
36 18 16
36 19 21
36 20 77
36 21 107
36 22 5
36 23 76
36 24 72
36 25 10
36 26 83
36 27 100
36 28 114
36 29 43
36 30 51
36 31 15
36 32 91
36 33 115
36 34 30
36 35 35
37 0 53
37 1 11
37 2 45
37 3 82
37 4 68
37 5 86
37 6 96
37 7 60
37 8 64
37 9 24
37 10 113
37 11 98
37 12 80
37 13 11
37 14 67
37 15 77
37 16 97
37 17 107
37 18 49
37 19 8
37 20 34
37 21 75
37 22 52
37 23 34
37 24 93
37 25 45
37 26 49
37 27 8
37 28 73
37 29 36
37 30 47
37 31 113
37 32 47
37 33 89
37 34 39
37 35 27
37 36 8
38 0 44
38 1 72
38 2 64
38 3 91
38 4 57
38 5 75
38 6 70
38 7 7
38 8 2
38 9 60
38 10 29
38 11 65
38 12 101
38 13 51
38 14 33
38 15 82
38 16 31
38 17 62
38 18 25
38 19 69
38 20 110
38 21 114
38 22 19
38 23 108
38 24 74
38 25 105
38 26 86
38 27 28
38 28 67
38 29 37
38 30 12
38 31 75
38 32 10
38 33 118
38 34 25
38 35 110
38 36 116
38 37 7
39 0 43
39 1 42
39 2 97
39 3 103
39 4 84
39 5 41
39 6 18
39 7 26
39 8 82
39 9 76
39 10 15
39 11 21
39 12 12
39 13 116
39 14 8
39 15 113
39 16 59
39 17 16
39 18 31
39 19 49
39 20 114
39 21 16
39 22 78
39 23 84
39 24 86
39 25 64
39 26 47
39 27 62
39 28 118
39 29 57
39 30 51
39 31 21
39 32 97
39 33 112
39 34 53
39 35 87
39 36 21
39 37 115
39 38 12
40 0 61
40 1 48
40 2 28
40 3 15
40 4 111
40 5 74
40 6 18
40 7 91
40 8 53
40 9 2
40 10 117
40 11 95
40 12 7
40 13 99
40 14 29
40 15 114
40 16 84
40 17 69
40 18 9
40 19 64
40 20 29
40 21 108
40 22 25
40 23 51
40 24 34
40 25 111
40 26 7
40 27 6
40 28 94
40 29 15
40 30 89
40 31 92
40 32 6
40 33 7
40 34 36
40 35 95
40 36 114
40 37 53
40 38 37
40 39 81
41 0 16
41 1 57
41 2 74
41 3 108
41 4 85
41 5 39
41 6 1
41 7 18
41 8 83
41 9 25
41 10 110
41 11 38
41 12 12
41 13 63
41 14 69
41 15 31
41 16 65
41 17 111
41 18 26
41 19 100
41 20 82
41 21 31
41 22 14
41 23 110
41 24 120
41 25 94
41 26 85
41 27 27
41 28 64
41 29 27
41 30 4
41 31 22
41 32 86
41 33 38
41 34 23
41 35 35
41 36 48
41 37 11
41 38 79
41 39 67
41 40 85
42 0 5
42 1 64
42 2 11
42 3 39
42 4 99
42 5 17
42 6 100
42 7 35
42 8 23
42 9 67
42 10 120
42 11 57
42 12 47
42 13 115
42 14 109
42 15 39
42 16 8
42 17 105
42 18 116
42 19 56
42 20 56
42 21 85
42 22 26
42 23 37
42 24 69
42 25 23
42 26 75
42 27 95
42 28 44
42 29 68
42 30 8
42 31 93
42 32 43
42 33 73
42 34 72
42 35 102
42 36 7
42 37 116
42 38 69
42 39 63
42 40 18
42 41 32
43 0 76
43 1 4
43 2 50
43 3 118
43 4 72
43 5 29
43 6 82
43 7 11
43 8 114
43 9 51
43 10 53
43 11 112
43 12 21
43 13 104
43 14 94
43 15 106
43 16 49
43 17 65
43 18 106
43 19 79
43 20 118
43 21 43
43 22 18
43 23 51
43 24 110
43 25 84
43 26 89
43 27 4
43 28 43
43 29 31
43 30 23
43 31 2
43 32 74
43 33 48
43 34 16
43 35 23
43 36 32
43 37 69
43 38 69
43 39 119
43 40 43
43 41 48
43 42 11
44 0 111
44 1 104
44 2 68
44 3 109
44 4 81
44 5 104
44 6 87
44 7 93
44 8 100
44 9 2
44 10 93
44 11 6
44 12 35
44 13 39
44 14 52
44 15 59
44 16 77
44 17 46
44 18 112
44 19 66
44 20 40
44 21 65
44 22 32
44 23 27
44 24 28
44 25 60
44 26 25
44 27 95
44 28 110
44 29 67
44 30 11
44 31 115
44 32 110
44 33 45
44 34 29
44 35 26
44 36 68
44 37 111
44 38 27
44 39 56
44 40 45
44 41 15
44 42 69
44 43 28
45 0 112
45 1 30
45 2 61
45 3 115
45 4 98
45 5 13
45 6 104
45 7 31
45 8 2
45 9 71
45 10 39
45 11 13
45 12 102
45 13 13
45 14 55
45 15 45
45 16 41
45 17 2
45 18 40
45 19 5
45 20 69
45 21 120
45 22 90
45 23 24
45 24 64
45 25 3
45 26 18
45 27 75
45 28 39
45 29 53
45 30 113
45 31 41
45 32 110
45 33 20
45 34 86
45 35 89
45 36 85
45 37 16
45 38 71
45 39 120
45 40 69
45 41 58
45 42 84
45 43 108
45 44 32
46 0 4
46 1 60
46 2 32
46 3 31
46 4 22
46 5 58
46 6 89
46 7 46
46 8 15
46 9 50
46 10 59
46 11 110
46 12 13
46 13 28
46 14 1
46 15 111
46 16 22
46 17 16
46 18 43
46 19 5
46 20 57
46 21 71
46 22 34
46 23 1
46 24 14
46 25 38
46 26 9
46 27 67
46 28 41
46 29 41
46 30 30
46 31 70
46 32 30
46 33 92
46 34 28
46 35 74
46 36 47
46 37 99
46 38 93
46 39 12
46 40 19
46 41 53
46 42 89
46 43 106
46 44 58
46 45 31
47 0 49
47 1 1
47 2 67
47 3 104
47 4 63
47 5 90
47 6 53
47 7 93
47 8 91
47 9 44
47 10 83
47 11 36
47 12 29
47 13 7
47 14 75
47 15 54
47 16 36
47 17 24
47 18 79
47 19 42
47 20 88
47 21 85
47 22 96
47 23 119
47 24 4
47 25 11
47 26 50
47 27 32
47 28 68
47 29 92
47 30 88
47 31 52
47 32 66
47 33 47
47 34 80
47 35 86
47 36 33
47 37 63
47 38 9
47 39 57
47 40 4
47 41 90
47 42 41
47 43 35
47 44 80
47 45 5
47 46 3
48 0 103
48 1 72
48 2 29
48 3 4
48 4 50
48 5 104
48 6 69
48 7 32
48 8 43
48 9 65
48 10 97
48 11 7
48 12 1
48 13 50
48 14 62
48 15 75
48 16 99
48 17 120
48 18 39
48 19 49
48 20 64
48 21 11
48 22 38
48 23 7
48 24 102
48 25 62
48 26 108
48 27 41
48 28 108
48 29 98
48 30 94
48 31 46
48 32 56
48 33 114
48 34 108
48 35 106
48 36 74
48 37 30
48 38 49
48 39 33
48 40 54
48 41 39
48 42 17
48 43 113
48 44 105
48 45 59
48 46 12
48 47 4
49 0 90
49 1 7
49 2 101
49 3 46
49 4 104
49 5 55
49 6 112
49 7 77
49 8 48
49 9 10
49 10 89
49 11 78
49 12 1
49 13 45
49 14 34
49 15 68
49 16 73
49 17 45
49 18 110
49 19 46
49 20 57
49 21 115
49 22 118
49 23 98
49 24 44
49 25 42
49 26 103
49 27 71
49 28 66
49 29 82
49 30 107
49 31 99
49 32 22
49 33 81
49 34 26
49 35 98
49 36 38
49 37 89
49 38 53
49 39 67
49 40 48
49 41 120
49 42 87
49 43 98
49 44 24
49 45 15
49 46 77
49 47 48
49 48 59
